letting n_nurses=25
letting n_days=7
letting n_shift_types=4
letting max_covers=8
letting t_covers=35
letting covers=[8,5,0,0,1,0,0,0,4,7,0,0,0,0,0,0,7,2,1,0,0,0,0,0,0,0,0,0]
letting prefes=[1,1,3,3,4,2,1,1,4,2,1,1,1,1,3,3,1,1,3,3,4,2,1,1,4,2,1,1,1,4,3,3,4,2,1,1,4,2,1,1,1,4,3,3,1,4,3,3,4,2,1,1,4,2,1,1,1,1,3,3,4,1,4,4,4,1,4,4,1,1,3,3,1,1,3,3,4,1,4,4,4,1,4,4,3,4,3,3,4,2,1,1,4,2,1,1,3,4,3,3,3,4,3,3,4,2,1,1,4,2,1,1,1,4,3,3,4,2,4,4,4,2,4,4,1,4,3,3,1,4,3,3,4,2,4,4,4,2,4,4,3,4,3,3,4,2,1,1,4,2,1,1,3,4,3,3,3,4,3,3,4,2,1,1,4,2,1,1,4,4,3,3,1,2,1,1,1,2,1,1,4,4,3,3,4,4,3,3,1,2,1,1,1,2,1,1,1,4,1,1,1,1,4,4,1,1,4,4,1,4,1,1,1,4,1,1,1,1,4,4,1,1,4,4,1,4,1,1,1,2,1,1,1,2,1,1,1,4,1,1,1,4,1,1,1,2,1,1,1,2,1,1,1,1,3,3,1,1,1,1,1,1,1,1,1,1,3,3,1,1,3,3,1,1,1,1,1,1,1,1,3,4,1,1,4,2,1,1,4,2,1,1,3,4,1,1,3,4,1,1,4,2,1,1,4,2,1,1,3,4,3,3,4,1,1,1,4,1,1,1,3,4,3,3,3,4,3,3,4,1,1,1,4,1,1,1,1,4,3,3,4,2,4,4,4,2,4,4,1,4,3,3,1,4,3,3,4,2,4,4,4,2,4,4,1,4,3,3,4,2,1,1,4,2,1,1,1,4,3,3,1,4,3,3,4,2,1,1,4,2,1,1,1,4,3,3,4,1,1,1,4,1,1,1,1,4,3,3,1,4,3,3,4,1,1,1,4,1,1,1,1,1,3,3,4,2,1,1,4,2,1,1,1,1,3,3,1,1,3,3,4,2,1,1,4,2,1,1,1,4,3,3,4,2,1,1,4,2,1,1,1,4,3,3,1,4,3,3,4,2,1,1,4,2,1,1,1,4,3,3,1,2,1,1,1,2,1,1,1,4,3,3,1,4,3,3,1,2,1,1,1,2,1,1,1,4,3,3,4,2,1,1,4,2,1,1,1,4,3,3,1,4,3,3,4,2,1,1,4,2,1,1,1,4,3,3,4,2,1,1,4,2,1,1,1,4,3,3,1,4,3,3,4,2,1,1,4,2,1,1,1,4,3,3,4,2,4,4,4,2,4,4,1,4,3,3,1,4,3,3,4,2,4,4,4,2,4,4,1,1,1,1,4,2,1,1,4,2,1,1,1,1,1,1,1,1,1,1,4,2,1,1,4,2,1,1,1,4,3,3,4,2,1,1,4,2,1,1,1,4,3,3,1,4,3,3,4,2,1,1,4,2,1,1,1,4,3,3,4,2,1,1,4,2,1,1,1,4,3,3,1,4,3,3,4,2,1,1,4,2,1,1,1,4,1,1,4,2,1,1,4,2,1,1,1,4,1,1,1,4,1,1,4,2,1,1,4,2,1,1]
letting ub =  227
